9   8   4
4   2   1   18   2   18   2   3   25   4   25   2   5   19   6   19   2   7   25   8   25   
4   2   1   10   2   10   2   3   20   4   20   2   5   24   6   24   2   7   28   8   28   
4   2   1   28   2   28   2   3   13   4   13   2   5   16   6   16   2   7   28   8   28   
4   2   1   20   2   20   2   3   16   4   16   2   5   18   6   18   2   7   10   8   10   
4   2   1   12   2   12   2   3   22   4   22   2   5   18   6   18   2   7   14   8   14   
4   2   1   17   2   17   2   3   13   4   13   2   5   30   6   30   2   7   15   8   15   
4   2   1   25   2   25   2   3   21   4   21   2   5   29   6   29   2   7   16   8   16   
4   2   1   25   2   25   2   3   14   4   14   2   5   20   6   20   2   7   10   8   10   
4   2   1   28   2   28   2   3   30   4   30   2   5   30   6   30   2   7   24   8   24   
